SPARKNaCl/why3-z3/sparknacl-hkdf.adb_36_26_range_check_2.smt2
;; produced by z3_gnatprove.drv ;;
(set-info :smt-lib-version 2.5)
(set-info :source |VC generated by SPARK 2014|)
(set-info :category industrial)
(set-info :status unknown)
;;; generated by SMT-LIB2 driver
;;; SMT-LIB2 driver: bit-vectors, common part
;;; SMT-LIB2: integer arithmetic
(define-fun __cdiv ((x Int) (y Int)) Int (ite (>= x 0) (div x y) (- (div (- x) y))))
(define-fun __cmod ((x Int) (y Int)) Int (ite (>= x 0) (mod x y) (- (mod (- x) y))))
(declare-datatypes ()
  ((bool__ref (bool__refqtmk (bool__content Bool)))))

;; "length"
(define-fun length ((x Int) (y Int)) Int
  (ite (<= x y) (+ (- y x) 1) 0))

(declare-datatypes ()
  ((t__ref (t__refqtmk (t__content (_ BitVec 8))))))

(declare-sort tinteger_32B 0)

;; "tinteger_32B'int"
(declare-fun tinteger_32Bqtint (tinteger_32B) Int)

;; "tinteger_32B'axiom"
(assert
  (forall ((i tinteger_32B))
    (and
      (<= (- 2147483648) (tinteger_32Bqtint i))
      (<= (tinteger_32Bqtint i) 2147483647))))

;; "in_range"
(define-fun in_range ((x Int)) Bool
  (and (<= (- 2147483648) x) (<= x 2147483647)))

;; "to_rep"
(define-fun to_rep ((x tinteger_32B)) Int
  (tinteger_32Bqtint x))

;; "of_rep"
(declare-fun of_rep (Int) tinteger_32B)

;; "inversion_axiom"
(assert
  (forall ((x tinteger_32B))
    (! (= (of_rep (to_rep x)) x) :pattern ((to_rep x)) )))

;; "range_axiom"
(assert
  (forall ((x tinteger_32B))
    (! (in_range (to_rep x)) :pattern ((to_rep x)) )))

;; "coerce_axiom"
(assert
  (forall ((x Int))
    (! (=> (in_range x) (= (to_rep (of_rep x)) x)) :pattern ((to_rep
                                                               (of_rep x))) )))

;; "in_range"
(define-fun in_range1 ((x Int)) Bool
  (and (<= 0 x) (<= x 2147483647)))

(declare-sort byte 0)

;; "to_rep"
(declare-fun to_rep1 (byte) (_ BitVec 8))

;; "of_rep"
(declare-fun of_rep1 ((_ BitVec 8)) byte)

;; "inversion_axiom"
(assert
  (forall ((x byte)) (! (= (of_rep1 (to_rep1 x)) x) :pattern ((to_rep1 x)) )))

;; "range_axiom"
(assert true)

;; "coerce_axiom"
(assert
  (forall ((x (_ BitVec 8)))
    (! (= (to_rep1 (of_rep1 x)) x) :pattern ((to_rep1 (of_rep1 x))) )))

(declare-sort map1 0)

(declare-datatypes ()
  ((map__ref (map__refqtmk (map__content map1)))))

;; "has_bounds"
(declare-fun has_bounds (map1
  Int
  Int) Bool)

;; "get"
(declare-fun get (map1
  Int) byte)

;; "concat_singleton_right"
(declare-fun concat_singleton_right (map1
  Int
  Int
  byte
  Int) map1)

;; "concat_singleton_right_def"
(assert
  (forall ((a map1) (b byte) (a_first Int) (a_last Int) (new_last Int))
    (! (and
         (=>
           (and (<= a_first a_last) (< a_last new_last))
           (=>
             (has_bounds a a_first a_last)
             (has_bounds
               (concat_singleton_right a a_first a_last b new_last)
               a_first
               new_last)))
         (and
           (=>
             (< a_last (+ a_last 1))
             (= (get
                  (concat_singleton_right a a_first a_last b new_last)
                  (+ a_last 1)) b))
           (forall ((i Int))
             (! (=>
                  (and (<= a_first i) (<= i a_last))
                  (= (get
                       (concat_singleton_right a a_first a_last b new_last)
                       i) (get a i))) :pattern ((get
                                                  (concat_singleton_right
                                                    a
                                                    a_first
                                                    a_last
                                                    b
                                                    new_last)
                                                  i)) :pattern ((get a i)) )))) :pattern (
    (concat_singleton_right
      a
      a_first
      a_last
      b
      new_last)) )))

;; "singleton"
(declare-fun singleton1 (byte
  Int) map1)

;; "singleton_bounds"
(assert
  (forall ((v byte) (i Int))
    (! (and (has_bounds (singleton1 v i) i i) (= (get (singleton1 v i) i) v)) :pattern (
    (singleton1
      v
      i)) )))

(declare-datatypes ()
  ((t (tqtmk (rec__first tinteger_32B)(rec__last tinteger_32B)))))

;; "mk"
(declare-fun mk (Int
  Int) t)

;; "mk_def"
(assert
  (forall ((f Int) (l Int))
    (! (=>
         (in_range f)
         (=>
           (in_range l)
           (and
             (= (to_rep (rec__first (mk f l))) f)
             (= (to_rep (rec__last (mk f l))) l)))) :pattern ((mk f l)) )))

;; "dynamic_property"
(define-fun dynamic_property ((range_first Int) (range_last Int) (low Int) (high Int)) Bool
  (and
    (in_range low)
    (and
      (in_range high)
      (=> (<= low high) (and (in_range1 low) (in_range1 high))))))

(declare-datatypes ()
  ((us_t (us_tqtmk (elts map1)(rt t)))))

;; "to_array"
(define-fun to_array ((a us_t)) map1
  (elts a))

;; "of_array"
(define-fun of_array ((a map1) (f Int) (l Int)) us_t
  (us_tqtmk a (mk f l)))

;; "first"
(define-fun first ((a us_t)) Int
  (to_rep (rec__first (rt a))))

;; "last"
(define-fun last ((a us_t)) Int
  (to_rep (rec__last (rt a))))

;; "length"
(define-fun length1 ((a us_t)) Int
  (ite (<= (first a) (last a)) (+ (- (last a) (first a)) 1) 0))

;; "well_formed"
(define-fun well_formed ((a us_t)) Bool
  (has_bounds
    (elts a)
    (to_rep (rec__first (rt a)))
    (to_rep (rec__last (rt a)))))

(declare-datatypes ()
  ((byte__init_wrapper
   (byte__init_wrapperqtmk (rec__value byte)(us_attr__init Bool)))))

(declare-sort map2 0)

(declare-datatypes ()
  ((map__ref1 (map__refqtmk1 (map__content1 map2)))))

;; "has_bounds"
(declare-fun has_bounds1 (map2
  Int
  Int) Bool)

;; "get"
(declare-fun get1 (map2
  Int) byte__init_wrapper)

(declare-const okm__first tinteger_32B)

(declare-const okm__last tinteger_32B)

(declare-const prk map1)

(declare-const info us_t)

;; "__is_initialized"
(define-fun us_is_initialized ((temp___expr_298 map2)) Bool
  (forall ((temp___299 Int))
    (=>
      (and (<= 0 temp___299) (<= temp___299 31))
      (= (us_attr__init (get1 temp___expr_298 temp___299)) true))))

;; "in_range"
(define-fun in_range2 ((x Int)) Bool
  (and (<= 0 x) (<= x 8159)))

;; "convert"
(declare-fun convert (map2) map1)

;; "convert__def"
(assert
  (forall ((a map2))
    (forall ((temp___169 Int))
      (= (to_rep1 (of_rep1 (to_rep1 (rec__value (get1 a temp___169))))) 
      (to_rep1
        (get (convert a) temp___169))))))

;; "convert"
(declare-fun convert1 (map1) map2)

;; "convert__def"
(assert
  (forall ((a map1))
    (let ((b (convert1 a)))
      (forall ((temp___170 Int))
        (and
          (= (us_attr__init
               (byte__init_wrapperqtmk
                 (of_rep1 (to_rep1 (get a temp___170)))
                 true)) (us_attr__init (get1 b temp___170)))
          (= (to_rep1
               (rec__value
                 (byte__init_wrapperqtmk
                   (of_rep1 (to_rep1 (get a temp___170)))
                   true))) (to_rep1 (rec__value (get1 b temp___170)))))))))

;; "dynamic_property"
(define-fun dynamic_property1 ((range_first Int) (range_last Int) (low Int) (high Int)) Bool
  (and
    (in_range low)
    (and
      (in_range high)
      (=> (<= low high) (and (in_range2 low) (in_range2 high))))))

(declare-datatypes ()
  ((t1 (tqtmk1 (rec__first1 tinteger_32B)(rec__last1 tinteger_32B)))))

;; "mk"
(declare-fun mk1 (Int
  Int) t1)

;; "mk_def"
(assert
  (forall ((f Int) (l Int))
    (! (=>
         (in_range f)
         (=>
           (in_range l)
           (and
             (= (to_rep (rec__first1 (mk1 f l))) f)
             (= (to_rep (rec__last1 (mk1 f l))) l)))) :pattern ((mk1 f l)) )))

(declare-datatypes ()
  ((us_t1 (us_tqtmk1 (elts1 map2)(rt1 t1)))))

;; "of_array"
(define-fun of_array1 ((a map2) (f Int) (l Int)) us_t1
  (us_tqtmk1 a (mk1 f l)))

;; "well_formed"
(define-fun well_formed1 ((a us_t1)) Bool
  (has_bounds1
    (elts1 a)
    (to_rep (rec__first1 (rt1 a)))
    (to_rep (rec__last1 (rt1 a)))))

;; "dynamic_invariant"
(define-fun dynamic_invariant ((temp___expr_244 us_t) (temp___is_init_240 Bool) (temp___skip_constant_241 Bool) (temp___do_toplevel_242 Bool) (temp___do_typ_inv_243 Bool)) Bool
  (and
    (=>
      (not (= temp___skip_constant_241 true))
      (dynamic_property
        0
        2147483647
        (first temp___expr_244)
        (last temp___expr_244)))
    (well_formed temp___expr_244)))

;; "__is_initialized"
(define-fun us_is_initialized1 ((temp___expr_277 map2)) Bool
  (forall ((temp___278 Int))
    (=>
      (and (<= 0 temp___278) (<= temp___278 31))
      (= (us_attr__init (get1 temp___expr_277 temp___278)) true))))

(declare-const okm map2)

(declare-const ti map1)

;; "ti'unused"
(define-fun tiqtunused () map__ref
  (map__refqtmk ti))

;; "okm'unused"
(define-fun okmqtunused () map__ref1
  (map__refqtmk1 okm))

;; "Assume"
(assert
  (and
    (dynamic_property1 0 8159 (to_rep okm__first) (to_rep okm__last))
    (well_formed1 (of_array1 okm (to_rep okm__first) (to_rep okm__last)))))

;; "Assume"
(assert (has_bounds prk 0 31))

;; "Assume"
(assert (dynamic_invariant info true false true true))

;; "Assume"
(assert
  (and
    (and
      (and
        (and
          (= (to_rep okm__first) 0)
          (< 0 (length (to_rep okm__first) (to_rep okm__last))))
        (<= (length (to_rep okm__first) (to_rep okm__last)) 8160))
      (=> (< 0 (length1 info)) (= (first info) 0)))
    (bvult ((_ int2bv 32) (length1 info)) #x7FFFFF9E)))

;; "Assume"
(assert true)

;; "Assume"
(assert (has_bounds ti 0 31))

(declare-const b (_ BitVec 8))

;; "b'unused"
(define-fun bqtunused () t__ref
  (t__refqtmk b))

;; "H"
(assert (= b #x01))

;; "Assume"
(assert true)

;; "map__content'result'unused"
(define-fun map__contentqtresultqtunused () map1
  ti)

;; "temp___compl_540"
(define-fun temp___compl_540 () map2
  (convert1 ti))

;; "convert'result'unused"
(define-fun convertqtresultqtunused () map2
  temp___compl_540)

;; "param__output'unused"
(define-fun param__outputqtunused () map__ref1
  (map__refqtmk1 temp___compl_540))

;; "map__ref'mk'result'unused"
(define-fun map__refqtmkqtresultqtunused () map__ref1
  (map__refqtmk1 temp___compl_540))

;; "o"
(define-fun o () us_t
  (of_array prk 0 31))

;; "of_array'result'unused"
(define-fun of_arrayqtresultqtunused () us_t
  o)

(declare-const o1 us_t)

(declare-const o2 Int)

;; "H"
(assert (= o2 (length1 info)))

(declare-const lengthqtresultqtunused Int)

;; "H"
(assert (= lengthqtresultqtunused o2))

(declare-const infix_eqqtresultqtunused Bool)

;; "H"
(assert (= infix_eqqtresultqtunused (ite (= o2 0) true false)))

(declare-const o3 Int)

(declare-const lastqtresultqtunused Int)

(declare-const o4 Int)

(declare-const firstqtresultqtunused Int)

(declare-const o5 Int)

(declare-const lengthqtresultqtunused1 Int)

(declare-const o6 Int)

(declare-const infix_plqtresultqtunused Int)

(declare-const o7 Int)

(declare-const firstqtresultqtunused1 Int)

(declare-const o8 Int)

(declare-const infix_plqtresultqtunused1 Int)

(declare-const o9 Int)

(declare-const infix_mnqtresultqtunused Int)

(declare-const range_check_qtresultqtunused Int)

(declare-const o10 Int)

(declare-const firstqtresultqtunused2 Int)

(declare-const o11 Int)

(declare-const infix_plqtresultqtunused2 Int)

(declare-const t__contentqtresultqtunused (_ BitVec 8))

(declare-const o12 byte)

(declare-const of_repqtresultqtunused byte)

(declare-const o13 Int)

(declare-const lastqtresultqtunused1 Int)

(declare-const o14 Int)

(declare-const firstqtresultqtunused3 Int)

(declare-const o15 map1)

(declare-const to_arrayqtresultqtunused map1)

(declare-const o16 map1)

(declare-const concat_singleton_rightqtresultqtunused map1)

(declare-const of_arrayqtresultqtunused1 us_t)

(declare-const t__contentqtresultqtunused1 (_ BitVec 8))

(declare-const o17 byte)

(declare-const of_repqtresultqtunused1 byte)

(declare-const o18 map1)

(declare-const singletonqtresultqtunused map1)

(declare-const of_arrayqtresultqtunused2 us_t)

;; "H"
(assert
  (ite (= o2 0)
    (and
      (= t__contentqtresultqtunused1 b)
      (and
        (= (to_rep1 o17) b)
        (and
          (= of_repqtresultqtunused1 o17)
          (and
            (= o18 (singleton1 o17 0))
            (and
              (= singletonqtresultqtunused o18)
              (and
                (= o1 (of_array o18 0 0))
                (= of_arrayqtresultqtunused2 o1)))))))
    (and
      (= o3 (last info))
      (and
        (= lastqtresultqtunused o3)
        (and
          (= o4 (first info))
          (and
            (= firstqtresultqtunused o4)
            (and
              (= o5 (length o4 o3))
              (and
                (= lengthqtresultqtunused1 o5)
                (and
                  (= o6 (+ o5 1))
                  (and
                    (= infix_plqtresultqtunused o6)
                    (and
                      (= o7 (first info))
                      (and
                        (= firstqtresultqtunused1 o7)
                        (and
                          (= o8 (+ o7 o6))
                          (and
                            (= infix_plqtresultqtunused1 o8)
                            (and
                              (= o9 (- o8 1))
                              (and
                                (= infix_mnqtresultqtunused o9)
                                (and
                                  (in_range1 o9)
                                  (and
                                    (= range_check_qtresultqtunused o9)
                                    (and
                                      (= o10 (first info))
                                      (and
                                        (= firstqtresultqtunused2 o10)
                                        (and
                                          (= o11 (+ 2147483647 1))
                                          (and
                                            (= infix_plqtresultqtunused2 
                                            o11)
                                            (and
                                              (= t__contentqtresultqtunused 
                                              b)
                                              (and
                                                (= (to_rep1 o12) b)
                                                (and
                                                  (= of_repqtresultqtunused 
                                                  o12)
                                                  (and
                                                    (= o13 (last info))
                                                    (and
                                                      (= lastqtresultqtunused1 
                                                      o13)
                                                      (and
                                                        (= o14 (first info))
                                                        (and
                                                          (= firstqtresultqtunused3 
                                                          o14)
                                                          (and
                                                            (= o15 (to_array
                                                                    info))
                                                            (and
                                                              (= to_arrayqtresultqtunused 
                                                              o15)
                                                              (and
                                                                (= o16 
                                                                (concat_singleton_right
                                                                  o15
                                                                  o14
                                                                  o13
                                                                  o12
                                                                  o11))
                                                                (and
                                                                  (= 
                                                                  concat_singleton_rightqtresultqtunused 
                                                                  o16)
                                                                  (and
                                                                    (= 
                                                                    o1 
                                                                    (of_array
                                                                    o16
                                                                    o10
                                                                    o9))
                                                                    (= 
                                                                    of_arrayqtresultqtunused1 
                                                                    o1)))))))))))))))))))))))))))))))))))

(declare-const param__output map2)

;; "param__output'unused"
(define-fun param__outputqtunused1 () map__ref1
  (map__refqtmk1 param__output))

;; "H"
(assert (us_is_initialized param__output))

;; "H"
(assert (has_bounds1 param__output 0 31))

;; "H"
(assert true)

;; "H"
(assert true)

;; "map__content'result'unused"
(define-fun map__contentqtresultqtunused1 () map2
  param__output)

;; "Assert"
(assert (us_is_initialized1 param__output))

;; "temp___548"
(define-fun temp___548 () map1
  (convert param__output))

;; "convert'result'unused"
(define-fun convertqtresultqtunused1 () map1
  temp___548)

(declare-const ti1 map1)

;; "ti'unused"
(define-fun tiqtunused1 () map__ref
  (map__refqtmk ti1))

;; "H"
(assert (= ti1 temp___548))

(declare-const o19 Int)

;; "Ensures"
(assert (= (to_rep okm__last) o19))

;; "to_rep'result'unused"
(define-fun to_repqtresultqtunused () Int
  o19)

(declare-const o20 Int)

;; "Ensures"
(assert (= (to_rep okm__first) o20))

;; "to_rep'result'unused"
(define-fun to_repqtresultqtunused1 () Int
  o20)

;; "map__content'result'unused"
(define-fun map__contentqtresultqtunused2 () map2
  okm)

;; "of_array'result'unused"
(define-fun of_arrayqtresultqtunused3 () us_t1
  (of_array1 okm o20 o19))

(declare-const o21 Int)

;; "Ensures"
(assert (= (to_rep okm__last) o21))

;; "to_rep'result'unused"
(define-fun to_repqtresultqtunused2 () Int
  o21)

;; "o"
(define-fun o22 () Bool
  (ite (<= o21 31) true false))

;; "infix <='result'unused"
(define-fun infix_lseqqtresultqtunused () Bool
  o22)

(declare-const spark__branch Bool)

;; "spark__branch'unused"
(define-fun spark__branchqtunused () bool__ref
  (bool__refqtmk spark__branch))

;; "H"
(assert (= spark__branch o22))

;; "bool__content'result'unused"
(define-fun bool__contentqtresultqtunused () Bool
  spark__branch)

;; "H"
(assert (= spark__branch true))

(declare-const o23 Int)

;; "Ensures"
(assert (= (to_rep okm__last) o23))

;; "to_rep'result'unused"
(define-fun to_repqtresultqtunused3 () Int
  o23)

(declare-const o24 Int)

;; "Ensures"
(assert (= (to_rep okm__first) o24))

;; "to_rep'result'unused"
(define-fun to_repqtresultqtunused4 () Int
  o24)

;; "map__content'result'unused"
(define-fun map__contentqtresultqtunused3 () map2
  okm)

;; "of_array'result'unused"
(define-fun of_arrayqtresultqtunused4 () us_t1
  (of_array1 okm o24 o23))

(declare-const temp___556 Int)

;; "Ensures"
(assert (= (to_rep okm__last) temp___556))

;; "to_rep'result'unused"
(define-fun to_repqtresultqtunused5 () Int
  temp___556)

(declare-const o25 Int)

;; "Ensures"
(assert (= (to_rep okm__last) o25))

;; "to_rep'result'unused"
(define-fun to_repqtresultqtunused6 () Int
  o25)

(declare-const o26 Int)

;; "Ensures"
(assert (= (to_rep okm__first) o26))

;; "to_rep'result'unused"
(define-fun to_repqtresultqtunused7 () Int
  o26)

;; "map__content'result'unused"
(define-fun map__contentqtresultqtunused4 () map2
  okm)

;; "of_array'result'unused"
(define-fun of_arrayqtresultqtunused5 () us_t1
  (of_array1 okm o26 o25))

(declare-const temp___553 Int)

;; "Ensures"
(assert (= (to_rep okm__first) temp___553))

;; "to_rep'result'unused"
(define-fun to_repqtresultqtunused8 () Int
  temp___553)

;; "H"
(assert (<= temp___553 temp___556))

;; Goal "def'vc"
;; File "sparknacl-hkdf.ads", line 25, characters 0-0
(assert
  (not (<= 0 temp___553)))

(check-sat)
